36-48-31-0-21-22-19-49-15-28-29-41-6-1-20-30-17-16-2-18-44-40-7-8-9-32-42-3-5-14-4-23-47-37-39-38-35-34-33-43-45-24-50-11-25-27-26-46-13-12-51-10 8183
36-48-31-0-21-22-19-49-15-28-29-41-6-1-20-30-17-16-2-18-44-40-7-8-9-32-42-3-5-14-4-23-47-37-39-38-35-34-33-43-45-24-50-11-25-27-26-46-13-12-51-10 9018
